/*********************************************
    * Lab01 - FCR
    * Author: Coso
    * Creation Date: Mar, 2019
    *********************************************/
instance_name = "small_instance_20_FCR";

d = 2;
r = 3;

SCj = [127 110];
Dk = [31 30 76];

Cjk = [[75 88 67]
 [32 43 86]];
Fjk = [[645 895 965]
 [438 881 637]];
